data/lp_files/pEFS/104_1.lp
\ Model foo
\ LP format - for model browsing. Use MPS format to capture full model detail.
Minimize
  z
Subject To
 allocateEach[1]: x[1,1] + x[2,1] + x[3,1] + x[4,1] + x[5,1] + x[6,1] = 1
 allocateEach[2]: x[1,2] + x[2,2] + x[3,2] + x[4,2] + x[5,2] + x[6,2] = 1
 allocateEach[3]: x[1,3] + x[2,3] + x[3,3] + x[4,3] + x[5,3] + x[6,3] = 1
 allocateEach[4]: x[1,4] + x[2,4] + x[3,4] + x[4,4] + x[5,4] + x[6,4] = 1
 allocateAllCash: cashProportion[1] + cashProportion[2] + cashProportion[3]
   + cashProportion[4] + cashProportion[5] + cashProportion[6] = 1
 findWorstP[1,2]: z + 0.0298801804762901 cashProportion[1]
   - 0.0298801804762901 cashProportion[2] + 0.1571996294857621 x[1,1]
   + 0.2859234469776197 x[1,2] + 0.2925867272238324 x[1,3]
   + 0.2344100158364956 x[1,4] - 0.1571996294857621 x[2,1]
   - 0.2859234469776197 x[2,2] - 0.2925867272238324 x[2,3]
   - 0.2344100158364956 x[2,4] >= 0
 findWorstP[1,3]: z + 0.0298801804762901 cashProportion[1]
   - 0.0298801804762901 cashProportion[3] + 0.1571996294857621 x[1,1]
   + 0.2859234469776197 x[1,2] + 0.2925867272238324 x[1,3]
   + 0.2344100158364956 x[1,4] - 0.1571996294857621 x[3,1]
   - 0.2859234469776197 x[3,2] - 0.2925867272238324 x[3,3]
   - 0.2344100158364956 x[3,4] >= 0
 findWorstP[1,4]: z + 0.0298801804762901 cashProportion[1]
   - 0.0298801804762901 cashProportion[4] + 0.1571996294857621 x[1,1]
   + 0.2859234469776197 x[1,2] + 0.2925867272238324 x[1,3]
   + 0.2344100158364956 x[1,4] - 0.1571996294857621 x[4,1]
   - 0.2859234469776197 x[4,2] - 0.2925867272238324 x[4,3]
   - 0.2344100158364956 x[4,4] >= 0
 findWorstP[1,5]: z + 0.0298801804762901 cashProportion[1]
   - 0.0298801804762901 cashProportion[5] + 0.1571996294857621 x[1,1]
   + 0.2859234469776197 x[1,2] + 0.2925867272238324 x[1,3]
   + 0.2344100158364956 x[1,4] - 0.1571996294857621 x[5,1]
   - 0.2859234469776197 x[5,2] - 0.2925867272238324 x[5,3]
   - 0.2344100158364956 x[5,4] >= 0
 findWorstP[1,6]: z + 0.0298801804762901 cashProportion[1]
   - 0.0298801804762901 cashProportion[6] + 0.1571996294857621 x[1,1]
   + 0.2859234469776197 x[1,2] + 0.2925867272238324 x[1,3]
   + 0.2344100158364956 x[1,4] - 0.1571996294857621 x[6,1]
   - 0.2859234469776197 x[6,2] - 0.2925867272238324 x[6,3]
   - 0.2344100158364956 x[6,4] >= 0
 findWorstP[2,1]: z - 0.04 cashProportion[1] + 0.04 cashProportion[2]
   - 0.35292 x[1,1] - 0.26696 x[1,2] - 0.26472 x[1,3] - 0.0754 x[1,4]
   + 0.35292 x[2,1] + 0.26696 x[2,2] + 0.26472 x[2,3] + 0.0754 x[2,4] >= 0
 findWorstP[2,3]: z + 0.04 cashProportion[2] - 0.04 cashProportion[3]
   + 0.35292 x[2,1] + 0.26696 x[2,2] + 0.26472 x[2,3] + 0.0754 x[2,4]
   - 0.35292 x[3,1] - 0.26696 x[3,2] - 0.26472 x[3,3] - 0.0754 x[3,4] >= 0
 findWorstP[2,4]: z + 0.04 cashProportion[2] - 0.04 cashProportion[4]
   + 0.35292 x[2,1] + 0.26696 x[2,2] + 0.26472 x[2,3] + 0.0754 x[2,4]
   - 0.35292 x[4,1] - 0.26696 x[4,2] - 0.26472 x[4,3] - 0.0754 x[4,4] >= 0
 findWorstP[2,5]: z + 0.04 cashProportion[2] - 0.04 cashProportion[5]
   + 0.35292 x[2,1] + 0.26696 x[2,2] + 0.26472 x[2,3] + 0.0754 x[2,4]
   - 0.35292 x[5,1] - 0.26696 x[5,2] - 0.26472 x[5,3] - 0.0754 x[5,4] >= 0
 findWorstP[2,6]: z + 0.04 cashProportion[2] - 0.04 cashProportion[6]
   + 0.35292 x[2,1] + 0.26696 x[2,2] + 0.26472 x[2,3] + 0.0754 x[2,4]
   - 0.35292 x[6,1] - 0.26696 x[6,2] - 0.26472 x[6,3] - 0.0754 x[6,4] >= 0
 findWorstP[3,1]: z - 0.03700414446418 cashProportion[1]
   + 0.03700414446418 cashProportion[3] - 0.2749777975133215 x[1,1]
   - 0.1920885139135583 x[1,2] - 0.1774718768502072 x[1,3]
   - 0.3184576672587329 x[1,4] + 0.2749777975133215 x[3,1]
   + 0.1920885139135583 x[3,2] + 0.1774718768502072 x[3,3]
   + 0.3184576672587329 x[3,4] >= 0
 findWorstP[3,2]: z - 0.03700414446418 cashProportion[2]
   + 0.03700414446418 cashProportion[3] - 0.2749777975133215 x[2,1]
   - 0.1920885139135583 x[2,2] - 0.1774718768502072 x[2,3]
   - 0.3184576672587329 x[2,4] + 0.2749777975133215 x[3,1]
   + 0.1920885139135583 x[3,2] + 0.1774718768502072 x[3,3]
   + 0.3184576672587329 x[3,4] >= 0
 findWorstP[3,4]: z + 0.03700414446418 cashProportion[3]
   - 0.03700414446418 cashProportion[4] + 0.2749777975133215 x[3,1]
   + 0.1920885139135583 x[3,2] + 0.1774718768502072 x[3,3]
   + 0.3184576672587329 x[3,4] - 0.2749777975133215 x[4,1]
   - 0.1920885139135583 x[4,2] - 0.1774718768502072 x[4,3]
   - 0.3184576672587329 x[4,4] >= 0
 findWorstP[3,5]: z + 0.03700414446418 cashProportion[3]
   - 0.03700414446418 cashProportion[5] + 0.2749777975133215 x[3,1]
   + 0.1920885139135583 x[3,2] + 0.1774718768502072 x[3,3]
   + 0.3184576672587329 x[3,4] - 0.2749777975133215 x[5,1]
   - 0.1920885139135583 x[5,2] - 0.1774718768502072 x[5,3]
   - 0.3184576672587329 x[5,4] >= 0
 findWorstP[3,6]: z + 0.03700414446418 cashProportion[3]
   - 0.03700414446418 cashProportion[6] + 0.2749777975133215 x[3,1]
   + 0.1920885139135583 x[3,2] + 0.1774718768502072 x[3,3]
   + 0.3184576672587329 x[3,4] - 0.2749777975133215 x[6,1]
   - 0.1920885139135583 x[6,2] - 0.1774718768502072 x[6,3]
   - 0.3184576672587329 x[6,4] >= 0
 findWorstP[4,1]: z - 0.0589414122362372 cashProportion[1]
   + 0.0589414122362372 cashProportion[4] - 0.00400801603206413 x[1,1]
   - 0.4514912177295768 x[1,2] - 0.1646233643758104 x[1,3]
   - 0.3209359896263114 x[1,4] + 0.00400801603206413 x[4,1]
   + 0.4514912177295768 x[4,2] + 0.1646233643758104 x[4,3]
   + 0.3209359896263114 x[4,4] >= 0
 findWorstP[4,2]: z - 0.0589414122362372 cashProportion[2]
   + 0.0589414122362372 cashProportion[4] - 0.00400801603206413 x[2,1]
   - 0.4514912177295768 x[2,2] - 0.1646233643758104 x[2,3]
   - 0.3209359896263114 x[2,4] + 0.00400801603206413 x[4,1]
   + 0.4514912177295768 x[4,2] + 0.1646233643758104 x[4,3]
   + 0.3209359896263114 x[4,4] >= 0
 findWorstP[4,3]: z - 0.0589414122362372 cashProportion[3]
   + 0.0589414122362372 cashProportion[4] - 0.00400801603206413 x[3,1]
   - 0.4514912177295768 x[3,2] - 0.1646233643758104 x[3,3]
   - 0.3209359896263114 x[3,4] + 0.00400801603206413 x[4,1]
   + 0.4514912177295768 x[4,2] + 0.1646233643758104 x[4,3]
   + 0.3209359896263114 x[4,4] >= 0
 findWorstP[4,5]: z + 0.0589414122362372 cashProportion[4]
   - 0.0589414122362372 cashProportion[5] + 0.00400801603206413 x[4,1]
   + 0.4514912177295768 x[4,2] + 0.1646233643758104 x[4,3]
   + 0.3209359896263114 x[4,4] - 0.00400801603206413 x[5,1]
   - 0.4514912177295768 x[5,2] - 0.1646233643758104 x[5,3]
   - 0.3209359896263114 x[5,4] >= 0
 findWorstP[4,6]: z + 0.0589414122362372 cashProportion[4]
   - 0.0589414122362372 cashProportion[6] + 0.00400801603206413 x[4,1]
   + 0.4514912177295768 x[4,2] + 0.1646233643758104 x[4,3]
   + 0.3209359896263114 x[4,4] - 0.00400801603206413 x[6,1]
   - 0.4514912177295768 x[6,2] - 0.1646233643758104 x[6,3]
   - 0.3209359896263114 x[6,4] >= 0
 findWorstP[5,1]: z - 0.0357142857142857 cashProportion[1]
   + 0.0357142857142857 cashProportion[5] - 0.0661071428571429 x[1,1]
   - 0.3126428571428571 x[1,2] - 0.2315 x[1,3] - 0.3540357142857143 x[1,4]
   + 0.0661071428571429 x[5,1] + 0.3126428571428571 x[5,2] + 0.2315 x[5,3]
   + 0.3540357142857143 x[5,4] >= 0
 findWorstP[5,2]: z - 0.0357142857142857 cashProportion[2]
   + 0.0357142857142857 cashProportion[5] - 0.0661071428571429 x[2,1]
   - 0.3126428571428571 x[2,2] - 0.2315 x[2,3] - 0.3540357142857143 x[2,4]
   + 0.0661071428571429 x[5,1] + 0.3126428571428571 x[5,2] + 0.2315 x[5,3]
   + 0.3540357142857143 x[5,4] >= 0
 findWorstP[5,3]: z - 0.0357142857142857 cashProportion[3]
   + 0.0357142857142857 cashProportion[5] - 0.0661071428571429 x[3,1]
   - 0.3126428571428571 x[3,2] - 0.2315 x[3,3] - 0.3540357142857143 x[3,4]
   + 0.0661071428571429 x[5,1] + 0.3126428571428571 x[5,2] + 0.2315 x[5,3]
   + 0.3540357142857143 x[5,4] >= 0
 findWorstP[5,4]: z - 0.0357142857142857 cashProportion[4]
   + 0.0357142857142857 cashProportion[5] - 0.0661071428571429 x[4,1]
   - 0.3126428571428571 x[4,2] - 0.2315 x[4,3] - 0.3540357142857143 x[4,4]
   + 0.0661071428571429 x[5,1] + 0.3126428571428571 x[5,2] + 0.2315 x[5,3]
   + 0.3540357142857143 x[5,4] >= 0
 findWorstP[5,6]: z + 0.0357142857142857 cashProportion[5]
   - 0.0357142857142857 cashProportion[6] + 0.0661071428571429 x[5,1]
   + 0.3126428571428571 x[5,2] + 0.2315 x[5,3] + 0.3540357142857143 x[5,4]
   - 0.0661071428571429 x[6,1] - 0.3126428571428571 x[6,2] - 0.2315 x[6,3]
   - 0.3540357142857143 x[6,4] >= 0
 findWorstP[6,1]: z - 0.0351395038302059 cashProportion[1]
   + 0.0351395038302059 cashProportion[6] - 0.2806592170918547 x[1,1]
   - 0.3088059596598496 x[1,2] - 0.2604540023894862 x[1,3]
   - 0.1149413170286036 x[1,4] + 0.2806592170918547 x[6,1]
   + 0.3088059596598496 x[6,2] + 0.2604540023894862 x[6,3]
   + 0.1149413170286036 x[6,4] >= 0
 findWorstP[6,2]: z - 0.0351395038302059 cashProportion[2]
   + 0.0351395038302059 cashProportion[6] - 0.2806592170918547 x[2,1]
   - 0.3088059596598496 x[2,2] - 0.2604540023894862 x[2,3]
   - 0.1149413170286036 x[2,4] + 0.2806592170918547 x[6,1]
   + 0.3088059596598496 x[6,2] + 0.2604540023894862 x[6,3]
   + 0.1149413170286036 x[6,4] >= 0
 findWorstP[6,3]: z - 0.0351395038302059 cashProportion[3]
   + 0.0351395038302059 cashProportion[6] - 0.2806592170918547 x[3,1]
   - 0.3088059596598496 x[3,2] - 0.2604540023894862 x[3,3]
   - 0.1149413170286036 x[3,4] + 0.2806592170918547 x[6,1]
   + 0.3088059596598496 x[6,2] + 0.2604540023894862 x[6,3]
   + 0.1149413170286036 x[6,4] >= 0
 findWorstP[6,4]: z - 0.0351395038302059 cashProportion[4]
   + 0.0351395038302059 cashProportion[6] - 0.2806592170918547 x[4,1]
   - 0.3088059596598496 x[4,2] - 0.2604540023894862 x[4,3]
   - 0.1149413170286036 x[4,4] + 0.2806592170918547 x[6,1]
   + 0.3088059596598496 x[6,2] + 0.2604540023894862 x[6,3]
   + 0.1149413170286036 x[6,4] >= 0
 findWorstP[6,5]: z - 0.0351395038302059 cashProportion[5]
   + 0.0351395038302059 cashProportion[6] - 0.2806592170918547 x[5,1]
   - 0.3088059596598496 x[5,2] - 0.2604540023894862 x[5,3]
   - 0.1149413170286036 x[5,4] + 0.2806592170918547 x[6,1]
   + 0.3088059596598496 x[6,2] + 0.2604540023894862 x[6,3]
   + 0.1149413170286036 x[6,4] >= 0
Bounds
 z <= 1
 -infinity <= cashProportion[1] <= 1
 -infinity <= cashProportion[2] <= 1
 -infinity <= cashProportion[3] <= 1
 -infinity <= cashProportion[4] <= 1
 -infinity <= cashProportion[5] <= 1
 -infinity <= cashProportion[6] <= 1
Binaries
 x[1,1] x[1,2] x[1,3] x[1,4] x[2,1] x[2,2] x[2,3] x[2,4] x[3,1] x[3,2]
 x[3,3] x[3,4] x[4,1] x[4,2] x[4,3] x[4,4] x[5,1] x[5,2] x[5,3] x[5,4]
 x[6,1] x[6,2] x[6,3] x[6,4]
End
