data/mps_files/pEFS/104_1.mps
NAME foo
ROWS
 N  OBJ
 E  allocateEach[1]
 E  allocateEach[2]
 E  allocateEach[3]
 E  allocateEach[4]
 E  allocateAllCash
 G  findWorstP[1,2]
 G  findWorstP[1,3]
 G  findWorstP[1,4]
 G  findWorstP[1,5]
 G  findWorstP[1,6]
 G  findWorstP[2,1]
 G  findWorstP[2,3]
 G  findWorstP[2,4]
 G  findWorstP[2,5]
 G  findWorstP[2,6]
 G  findWorstP[3,1]
 G  findWorstP[3,2]
 G  findWorstP[3,4]
 G  findWorstP[3,5]
 G  findWorstP[3,6]
 G  findWorstP[4,1]
 G  findWorstP[4,2]
 G  findWorstP[4,3]
 G  findWorstP[4,5]
 G  findWorstP[4,6]
 G  findWorstP[5,1]
 G  findWorstP[5,2]
 G  findWorstP[5,3]
 G  findWorstP[5,4]
 G  findWorstP[5,6]
 G  findWorstP[6,1]
 G  findWorstP[6,2]
 G  findWorstP[6,3]
 G  findWorstP[6,4]
 G  findWorstP[6,5]
COLUMNS
    z         OBJ       1
    z         findWorstP[1,2]  1
    z         findWorstP[1,3]  1
    z         findWorstP[1,4]  1
    z         findWorstP[1,5]  1
    z         findWorstP[1,6]  1
    z         findWorstP[2,1]  1
    z         findWorstP[2,3]  1
    z         findWorstP[2,4]  1
    z         findWorstP[2,5]  1
    z         findWorstP[2,6]  1
    z         findWorstP[3,1]  1
    z         findWorstP[3,2]  1
    z         findWorstP[3,4]  1
    z         findWorstP[3,5]  1
    z         findWorstP[3,6]  1
    z         findWorstP[4,1]  1
    z         findWorstP[4,2]  1
    z         findWorstP[4,3]  1
    z         findWorstP[4,5]  1
    z         findWorstP[4,6]  1
    z         findWorstP[5,1]  1
    z         findWorstP[5,2]  1
    z         findWorstP[5,3]  1
    z         findWorstP[5,4]  1
    z         findWorstP[5,6]  1
    z         findWorstP[6,1]  1
    z         findWorstP[6,2]  1
    z         findWorstP[6,3]  1
    z         findWorstP[6,4]  1
    z         findWorstP[6,5]  1
    cashProportion[1]  allocateAllCash  1
    cashProportion[1]  findWorstP[1,2]  2.9880180476290076e-02
    cashProportion[1]  findWorstP[1,3]  2.9880180476290076e-02
    cashProportion[1]  findWorstP[1,4]  2.9880180476290076e-02
    cashProportion[1]  findWorstP[1,5]  2.9880180476290076e-02
    cashProportion[1]  findWorstP[1,6]  2.9880180476290076e-02
    cashProportion[1]  findWorstP[2,1]  -4.0000000000000008e-02
    cashProportion[1]  findWorstP[3,1]  -3.7004144464179982e-02
    cashProportion[1]  findWorstP[4,1]  -5.8941412236237181e-02
    cashProportion[1]  findWorstP[5,1]  -3.5714285714285719e-02
    cashProportion[1]  findWorstP[6,1]  -3.5139503830205913e-02
    cashProportion[2]  allocateAllCash  1
    cashProportion[2]  findWorstP[1,2]  -2.9880180476290076e-02
    cashProportion[2]  findWorstP[2,1]  4.0000000000000008e-02
    cashProportion[2]  findWorstP[2,3]  4.0000000000000008e-02
    cashProportion[2]  findWorstP[2,4]  4.0000000000000008e-02
    cashProportion[2]  findWorstP[2,5]  4.0000000000000008e-02
    cashProportion[2]  findWorstP[2,6]  4.0000000000000008e-02
    cashProportion[2]  findWorstP[3,2]  -3.7004144464179982e-02
    cashProportion[2]  findWorstP[4,2]  -5.8941412236237181e-02
    cashProportion[2]  findWorstP[5,2]  -3.5714285714285719e-02
    cashProportion[2]  findWorstP[6,2]  -3.5139503830205913e-02
    cashProportion[3]  allocateAllCash  1
    cashProportion[3]  findWorstP[1,3]  -2.9880180476290076e-02
    cashProportion[3]  findWorstP[2,3]  -4.0000000000000008e-02
    cashProportion[3]  findWorstP[3,1]  3.7004144464179982e-02
    cashProportion[3]  findWorstP[3,2]  3.7004144464179982e-02
    cashProportion[3]  findWorstP[3,4]  3.7004144464179982e-02
    cashProportion[3]  findWorstP[3,5]  3.7004144464179982e-02
    cashProportion[3]  findWorstP[3,6]  3.7004144464179982e-02
    cashProportion[3]  findWorstP[4,3]  -5.8941412236237181e-02
    cashProportion[3]  findWorstP[5,3]  -3.5714285714285719e-02
    cashProportion[3]  findWorstP[6,3]  -3.5139503830205913e-02
    cashProportion[4]  allocateAllCash  1
    cashProportion[4]  findWorstP[1,4]  -2.9880180476290076e-02
    cashProportion[4]  findWorstP[2,4]  -4.0000000000000008e-02
    cashProportion[4]  findWorstP[3,4]  -3.7004144464179982e-02
    cashProportion[4]  findWorstP[4,1]  5.8941412236237181e-02
    cashProportion[4]  findWorstP[4,2]  5.8941412236237181e-02
    cashProportion[4]  findWorstP[4,3]  5.8941412236237181e-02
    cashProportion[4]  findWorstP[4,5]  5.8941412236237181e-02
    cashProportion[4]  findWorstP[4,6]  5.8941412236237181e-02
    cashProportion[4]  findWorstP[5,4]  -3.5714285714285719e-02
    cashProportion[4]  findWorstP[6,4]  -3.5139503830205913e-02
    cashProportion[5]  allocateAllCash  1
    cashProportion[5]  findWorstP[1,5]  -2.9880180476290076e-02
    cashProportion[5]  findWorstP[2,5]  -4.0000000000000008e-02
    cashProportion[5]  findWorstP[3,5]  -3.7004144464179982e-02
    cashProportion[5]  findWorstP[4,5]  -5.8941412236237181e-02
    cashProportion[5]  findWorstP[5,1]  3.5714285714285719e-02
    cashProportion[5]  findWorstP[5,2]  3.5714285714285719e-02
    cashProportion[5]  findWorstP[5,3]  3.5714285714285719e-02
    cashProportion[5]  findWorstP[5,4]  3.5714285714285719e-02
    cashProportion[5]  findWorstP[5,6]  3.5714285714285719e-02
    cashProportion[5]  findWorstP[6,5]  -3.5139503830205913e-02
    cashProportion[6]  allocateAllCash  1
    cashProportion[6]  findWorstP[1,6]  -2.9880180476290076e-02
    cashProportion[6]  findWorstP[2,6]  -4.0000000000000008e-02
    cashProportion[6]  findWorstP[3,6]  -3.7004144464179982e-02
    cashProportion[6]  findWorstP[4,6]  -5.8941412236237181e-02
    cashProportion[6]  findWorstP[5,6]  -3.5714285714285719e-02
    cashProportion[6]  findWorstP[6,1]  3.5139503830205913e-02
    cashProportion[6]  findWorstP[6,2]  3.5139503830205913e-02
    cashProportion[6]  findWorstP[6,3]  3.5139503830205913e-02
    cashProportion[6]  findWorstP[6,4]  3.5139503830205913e-02
    cashProportion[6]  findWorstP[6,5]  3.5139503830205913e-02
    MARKER    'MARKER'                 'INTORG'
    x[1,1]    allocateEach[1]  1
    x[1,1]    findWorstP[1,2]  1.5719962948576208e-01
    x[1,1]    findWorstP[1,3]  1.5719962948576208e-01
    x[1,1]    findWorstP[1,4]  1.5719962948576208e-01
    x[1,1]    findWorstP[1,5]  1.5719962948576208e-01
    x[1,1]    findWorstP[1,6]  1.5719962948576208e-01
    x[1,1]    findWorstP[2,1]  -0.35292
    x[1,1]    findWorstP[3,1]  -2.7497779751332146e-01
    x[1,1]    findWorstP[4,1]  -4.0080160320641279e-03
    x[1,1]    findWorstP[5,1]  -6.6107142857142850e-02
    x[1,1]    findWorstP[6,1]  -2.8065921709185465e-01
    x[1,2]    allocateEach[2]  1
    x[1,2]    findWorstP[1,2]  2.8592344697761973e-01
    x[1,2]    findWorstP[1,3]  2.8592344697761973e-01
    x[1,2]    findWorstP[1,4]  2.8592344697761973e-01
    x[1,2]    findWorstP[1,5]  2.8592344697761973e-01
    x[1,2]    findWorstP[1,6]  2.8592344697761973e-01
    x[1,2]    findWorstP[2,1]  -2.6696000000000003e-01
    x[1,2]    findWorstP[3,1]  -1.9208851391355830e-01
    x[1,2]    findWorstP[4,1]  -4.5149121772957679e-01
    x[1,2]    findWorstP[5,1]  -3.1264285714285711e-01
    x[1,2]    findWorstP[6,1]  -3.0880595965984958e-01
    x[1,3]    allocateEach[3]  1
    x[1,3]    findWorstP[1,2]  2.9258672722383239e-01
    x[1,3]    findWorstP[1,3]  2.9258672722383239e-01
    x[1,3]    findWorstP[1,4]  2.9258672722383239e-01
    x[1,3]    findWorstP[1,5]  2.9258672722383239e-01
    x[1,3]    findWorstP[1,6]  2.9258672722383239e-01
    x[1,3]    findWorstP[2,1]  -0.26472
    x[1,3]    findWorstP[3,1]  -1.7747187685020721e-01
    x[1,3]    findWorstP[4,1]  -1.6462336437581043e-01
    x[1,3]    findWorstP[5,1]  -0.2315
    x[1,3]    findWorstP[6,1]  -2.6045400238948624e-01
    x[1,4]    allocateEach[4]  1
    x[1,4]    findWorstP[1,2]  2.3441001583649562e-01
    x[1,4]    findWorstP[1,3]  2.3441001583649562e-01
    x[1,4]    findWorstP[1,4]  2.3441001583649562e-01
    x[1,4]    findWorstP[1,5]  2.3441001583649562e-01
    x[1,4]    findWorstP[1,6]  2.3441001583649562e-01
    x[1,4]    findWorstP[2,1]  -7.5400000000000009e-02
    x[1,4]    findWorstP[3,1]  -3.1845766725873292e-01
    x[1,4]    findWorstP[4,1]  -3.2093598962631142e-01
    x[1,4]    findWorstP[5,1]  -3.5403571428571429e-01
    x[1,4]    findWorstP[6,1]  -1.1494131702860355e-01
    x[2,1]    allocateEach[1]  1
    x[2,1]    findWorstP[1,2]  -1.5719962948576208e-01
    x[2,1]    findWorstP[2,1]  0.35292
    x[2,1]    findWorstP[2,3]  0.35292
    x[2,1]    findWorstP[2,4]  0.35292
    x[2,1]    findWorstP[2,5]  0.35292
    x[2,1]    findWorstP[2,6]  0.35292
    x[2,1]    findWorstP[3,2]  -2.7497779751332146e-01
    x[2,1]    findWorstP[4,2]  -4.0080160320641279e-03
    x[2,1]    findWorstP[5,2]  -6.6107142857142850e-02
    x[2,1]    findWorstP[6,2]  -2.8065921709185465e-01
    x[2,2]    allocateEach[2]  1
    x[2,2]    findWorstP[1,2]  -2.8592344697761973e-01
    x[2,2]    findWorstP[2,1]  2.6696000000000003e-01
    x[2,2]    findWorstP[2,3]  2.6696000000000003e-01
    x[2,2]    findWorstP[2,4]  2.6696000000000003e-01
    x[2,2]    findWorstP[2,5]  2.6696000000000003e-01
    x[2,2]    findWorstP[2,6]  2.6696000000000003e-01
    x[2,2]    findWorstP[3,2]  -1.9208851391355830e-01
    x[2,2]    findWorstP[4,2]  -4.5149121772957679e-01
    x[2,2]    findWorstP[5,2]  -3.1264285714285711e-01
    x[2,2]    findWorstP[6,2]  -3.0880595965984958e-01
    x[2,3]    allocateEach[3]  1
    x[2,3]    findWorstP[1,2]  -2.9258672722383239e-01
    x[2,3]    findWorstP[2,1]  0.26472
    x[2,3]    findWorstP[2,3]  0.26472
    x[2,3]    findWorstP[2,4]  0.26472
    x[2,3]    findWorstP[2,5]  0.26472
    x[2,3]    findWorstP[2,6]  0.26472
    x[2,3]    findWorstP[3,2]  -1.7747187685020721e-01
    x[2,3]    findWorstP[4,2]  -1.6462336437581043e-01
    x[2,3]    findWorstP[5,2]  -0.2315
    x[2,3]    findWorstP[6,2]  -2.6045400238948624e-01
    x[2,4]    allocateEach[4]  1
    x[2,4]    findWorstP[1,2]  -2.3441001583649562e-01
    x[2,4]    findWorstP[2,1]  7.5400000000000009e-02
    x[2,4]    findWorstP[2,3]  7.5400000000000009e-02
    x[2,4]    findWorstP[2,4]  7.5400000000000009e-02
    x[2,4]    findWorstP[2,5]  7.5400000000000009e-02
    x[2,4]    findWorstP[2,6]  7.5400000000000009e-02
    x[2,4]    findWorstP[3,2]  -3.1845766725873292e-01
    x[2,4]    findWorstP[4,2]  -3.2093598962631142e-01
    x[2,4]    findWorstP[5,2]  -3.5403571428571429e-01
    x[2,4]    findWorstP[6,2]  -1.1494131702860355e-01
    x[3,1]    allocateEach[1]  1
    x[3,1]    findWorstP[1,3]  -1.5719962948576208e-01
    x[3,1]    findWorstP[2,3]  -0.35292
    x[3,1]    findWorstP[3,1]  2.7497779751332146e-01
    x[3,1]    findWorstP[3,2]  2.7497779751332146e-01
    x[3,1]    findWorstP[3,4]  2.7497779751332146e-01
    x[3,1]    findWorstP[3,5]  2.7497779751332146e-01
    x[3,1]    findWorstP[3,6]  2.7497779751332146e-01
    x[3,1]    findWorstP[4,3]  -4.0080160320641279e-03
    x[3,1]    findWorstP[5,3]  -6.6107142857142850e-02
    x[3,1]    findWorstP[6,3]  -2.8065921709185465e-01
    x[3,2]    allocateEach[2]  1
    x[3,2]    findWorstP[1,3]  -2.8592344697761973e-01
    x[3,2]    findWorstP[2,3]  -2.6696000000000003e-01
    x[3,2]    findWorstP[3,1]  1.9208851391355830e-01
    x[3,2]    findWorstP[3,2]  1.9208851391355830e-01
    x[3,2]    findWorstP[3,4]  1.9208851391355830e-01
    x[3,2]    findWorstP[3,5]  1.9208851391355830e-01
    x[3,2]    findWorstP[3,6]  1.9208851391355830e-01
    x[3,2]    findWorstP[4,3]  -4.5149121772957679e-01
    x[3,2]    findWorstP[5,3]  -3.1264285714285711e-01
    x[3,2]    findWorstP[6,3]  -3.0880595965984958e-01
    x[3,3]    allocateEach[3]  1
    x[3,3]    findWorstP[1,3]  -2.9258672722383239e-01
    x[3,3]    findWorstP[2,3]  -0.26472
    x[3,3]    findWorstP[3,1]  1.7747187685020721e-01
    x[3,3]    findWorstP[3,2]  1.7747187685020721e-01
    x[3,3]    findWorstP[3,4]  1.7747187685020721e-01
    x[3,3]    findWorstP[3,5]  1.7747187685020721e-01
    x[3,3]    findWorstP[3,6]  1.7747187685020721e-01
    x[3,3]    findWorstP[4,3]  -1.6462336437581043e-01
    x[3,3]    findWorstP[5,3]  -0.2315
    x[3,3]    findWorstP[6,3]  -2.6045400238948624e-01
    x[3,4]    allocateEach[4]  1
    x[3,4]    findWorstP[1,3]  -2.3441001583649562e-01
    x[3,4]    findWorstP[2,3]  -7.5400000000000009e-02
    x[3,4]    findWorstP[3,1]  3.1845766725873292e-01
    x[3,4]    findWorstP[3,2]  3.1845766725873292e-01
    x[3,4]    findWorstP[3,4]  3.1845766725873292e-01
    x[3,4]    findWorstP[3,5]  3.1845766725873292e-01
    x[3,4]    findWorstP[3,6]  3.1845766725873292e-01
    x[3,4]    findWorstP[4,3]  -3.2093598962631142e-01
    x[3,4]    findWorstP[5,3]  -3.5403571428571429e-01
    x[3,4]    findWorstP[6,3]  -1.1494131702860355e-01
    x[4,1]    allocateEach[1]  1
    x[4,1]    findWorstP[1,4]  -1.5719962948576208e-01
    x[4,1]    findWorstP[2,4]  -0.35292
    x[4,1]    findWorstP[3,4]  -2.7497779751332146e-01
    x[4,1]    findWorstP[4,1]  4.0080160320641279e-03
    x[4,1]    findWorstP[4,2]  4.0080160320641279e-03
    x[4,1]    findWorstP[4,3]  4.0080160320641279e-03
    x[4,1]    findWorstP[4,5]  4.0080160320641279e-03
    x[4,1]    findWorstP[4,6]  4.0080160320641279e-03
    x[4,1]    findWorstP[5,4]  -6.6107142857142850e-02
    x[4,1]    findWorstP[6,4]  -2.8065921709185465e-01
    x[4,2]    allocateEach[2]  1
    x[4,2]    findWorstP[1,4]  -2.8592344697761973e-01
    x[4,2]    findWorstP[2,4]  -2.6696000000000003e-01
    x[4,2]    findWorstP[3,4]  -1.9208851391355830e-01
    x[4,2]    findWorstP[4,1]  4.5149121772957679e-01
    x[4,2]    findWorstP[4,2]  4.5149121772957679e-01
    x[4,2]    findWorstP[4,3]  4.5149121772957679e-01
    x[4,2]    findWorstP[4,5]  4.5149121772957679e-01
    x[4,2]    findWorstP[4,6]  4.5149121772957679e-01
    x[4,2]    findWorstP[5,4]  -3.1264285714285711e-01
    x[4,2]    findWorstP[6,4]  -3.0880595965984958e-01
    x[4,3]    allocateEach[3]  1
    x[4,3]    findWorstP[1,4]  -2.9258672722383239e-01
    x[4,3]    findWorstP[2,4]  -0.26472
    x[4,3]    findWorstP[3,4]  -1.7747187685020721e-01
    x[4,3]    findWorstP[4,1]  1.6462336437581043e-01
    x[4,3]    findWorstP[4,2]  1.6462336437581043e-01
    x[4,3]    findWorstP[4,3]  1.6462336437581043e-01
    x[4,3]    findWorstP[4,5]  1.6462336437581043e-01
    x[4,3]    findWorstP[4,6]  1.6462336437581043e-01
    x[4,3]    findWorstP[5,4]  -0.2315
    x[4,3]    findWorstP[6,4]  -2.6045400238948624e-01
    x[4,4]    allocateEach[4]  1
    x[4,4]    findWorstP[1,4]  -2.3441001583649562e-01
    x[4,4]    findWorstP[2,4]  -7.5400000000000009e-02
    x[4,4]    findWorstP[3,4]  -3.1845766725873292e-01
    x[4,4]    findWorstP[4,1]  3.2093598962631142e-01
    x[4,4]    findWorstP[4,2]  3.2093598962631142e-01
    x[4,4]    findWorstP[4,3]  3.2093598962631142e-01
    x[4,4]    findWorstP[4,5]  3.2093598962631142e-01
    x[4,4]    findWorstP[4,6]  3.2093598962631142e-01
    x[4,4]    findWorstP[5,4]  -3.5403571428571429e-01
    x[4,4]    findWorstP[6,4]  -1.1494131702860355e-01
    x[5,1]    allocateEach[1]  1
    x[5,1]    findWorstP[1,5]  -1.5719962948576208e-01
    x[5,1]    findWorstP[2,5]  -0.35292
    x[5,1]    findWorstP[3,5]  -2.7497779751332146e-01
    x[5,1]    findWorstP[4,5]  -4.0080160320641279e-03
    x[5,1]    findWorstP[5,1]  6.6107142857142850e-02
    x[5,1]    findWorstP[5,2]  6.6107142857142850e-02
    x[5,1]    findWorstP[5,3]  6.6107142857142850e-02
    x[5,1]    findWorstP[5,4]  6.6107142857142850e-02
    x[5,1]    findWorstP[5,6]  6.6107142857142850e-02
    x[5,1]    findWorstP[6,5]  -2.8065921709185465e-01
    x[5,2]    allocateEach[2]  1
    x[5,2]    findWorstP[1,5]  -2.8592344697761973e-01
    x[5,2]    findWorstP[2,5]  -2.6696000000000003e-01
    x[5,2]    findWorstP[3,5]  -1.9208851391355830e-01
    x[5,2]    findWorstP[4,5]  -4.5149121772957679e-01
    x[5,2]    findWorstP[5,1]  3.1264285714285711e-01
    x[5,2]    findWorstP[5,2]  3.1264285714285711e-01
    x[5,2]    findWorstP[5,3]  3.1264285714285711e-01
    x[5,2]    findWorstP[5,4]  3.1264285714285711e-01
    x[5,2]    findWorstP[5,6]  3.1264285714285711e-01
    x[5,2]    findWorstP[6,5]  -3.0880595965984958e-01
    x[5,3]    allocateEach[3]  1
    x[5,3]    findWorstP[1,5]  -2.9258672722383239e-01
    x[5,3]    findWorstP[2,5]  -0.26472
    x[5,3]    findWorstP[3,5]  -1.7747187685020721e-01
    x[5,3]    findWorstP[4,5]  -1.6462336437581043e-01
    x[5,3]    findWorstP[5,1]  0.2315
    x[5,3]    findWorstP[5,2]  0.2315
    x[5,3]    findWorstP[5,3]  0.2315
    x[5,3]    findWorstP[5,4]  0.2315
    x[5,3]    findWorstP[5,6]  0.2315
    x[5,3]    findWorstP[6,5]  -2.6045400238948624e-01
    x[5,4]    allocateEach[4]  1
    x[5,4]    findWorstP[1,5]  -2.3441001583649562e-01
    x[5,4]    findWorstP[2,5]  -7.5400000000000009e-02
    x[5,4]    findWorstP[3,5]  -3.1845766725873292e-01
    x[5,4]    findWorstP[4,5]  -3.2093598962631142e-01
    x[5,4]    findWorstP[5,1]  3.5403571428571429e-01
    x[5,4]    findWorstP[5,2]  3.5403571428571429e-01
    x[5,4]    findWorstP[5,3]  3.5403571428571429e-01
    x[5,4]    findWorstP[5,4]  3.5403571428571429e-01
    x[5,4]    findWorstP[5,6]  3.5403571428571429e-01
    x[5,4]    findWorstP[6,5]  -1.1494131702860355e-01
    x[6,1]    allocateEach[1]  1
    x[6,1]    findWorstP[1,6]  -1.5719962948576208e-01
    x[6,1]    findWorstP[2,6]  -0.35292
    x[6,1]    findWorstP[3,6]  -2.7497779751332146e-01
    x[6,1]    findWorstP[4,6]  -4.0080160320641279e-03
    x[6,1]    findWorstP[5,6]  -6.6107142857142850e-02
    x[6,1]    findWorstP[6,1]  2.8065921709185465e-01
    x[6,1]    findWorstP[6,2]  2.8065921709185465e-01
    x[6,1]    findWorstP[6,3]  2.8065921709185465e-01
    x[6,1]    findWorstP[6,4]  2.8065921709185465e-01
    x[6,1]    findWorstP[6,5]  2.8065921709185465e-01
    x[6,2]    allocateEach[2]  1
    x[6,2]    findWorstP[1,6]  -2.8592344697761973e-01
    x[6,2]    findWorstP[2,6]  -2.6696000000000003e-01
    x[6,2]    findWorstP[3,6]  -1.9208851391355830e-01
    x[6,2]    findWorstP[4,6]  -4.5149121772957679e-01
    x[6,2]    findWorstP[5,6]  -3.1264285714285711e-01
    x[6,2]    findWorstP[6,1]  3.0880595965984958e-01
    x[6,2]    findWorstP[6,2]  3.0880595965984958e-01
    x[6,2]    findWorstP[6,3]  3.0880595965984958e-01
    x[6,2]    findWorstP[6,4]  3.0880595965984958e-01
    x[6,2]    findWorstP[6,5]  3.0880595965984958e-01
    x[6,3]    allocateEach[3]  1
    x[6,3]    findWorstP[1,6]  -2.9258672722383239e-01
    x[6,3]    findWorstP[2,6]  -0.26472
    x[6,3]    findWorstP[3,6]  -1.7747187685020721e-01
    x[6,3]    findWorstP[4,6]  -1.6462336437581043e-01
    x[6,3]    findWorstP[5,6]  -0.2315
    x[6,3]    findWorstP[6,1]  2.6045400238948624e-01
    x[6,3]    findWorstP[6,2]  2.6045400238948624e-01
    x[6,3]    findWorstP[6,3]  2.6045400238948624e-01
    x[6,3]    findWorstP[6,4]  2.6045400238948624e-01
    x[6,3]    findWorstP[6,5]  2.6045400238948624e-01
    x[6,4]    allocateEach[4]  1
    x[6,4]    findWorstP[1,6]  -2.3441001583649562e-01
    x[6,4]    findWorstP[2,6]  -7.5400000000000009e-02
    x[6,4]    findWorstP[3,6]  -3.1845766725873292e-01
    x[6,4]    findWorstP[4,6]  -3.2093598962631142e-01
    x[6,4]    findWorstP[5,6]  -3.5403571428571429e-01
    x[6,4]    findWorstP[6,1]  1.1494131702860355e-01
    x[6,4]    findWorstP[6,2]  1.1494131702860355e-01
    x[6,4]    findWorstP[6,3]  1.1494131702860355e-01
    x[6,4]    findWorstP[6,4]  1.1494131702860355e-01
    x[6,4]    findWorstP[6,5]  1.1494131702860355e-01
    MARKER    'MARKER'                 'INTEND'
RHS
    RHS1      allocateEach[1]  1
    RHS1      allocateEach[2]  1
    RHS1      allocateEach[3]  1
    RHS1      allocateEach[4]  1
    RHS1      allocateAllCash  1
BOUNDS
 UP BND1      z         1
 MI BND1      cashProportion[1]
 UP BND1      cashProportion[1]  1
 MI BND1      cashProportion[2]
 UP BND1      cashProportion[2]  1
 MI BND1      cashProportion[3]
 UP BND1      cashProportion[3]  1
 MI BND1      cashProportion[4]
 UP BND1      cashProportion[4]  1
 MI BND1      cashProportion[5]
 UP BND1      cashProportion[5]  1
 MI BND1      cashProportion[6]
 UP BND1      cashProportion[6]  1
 BV BND1      x[1,1]  
 BV BND1      x[1,2]  
 BV BND1      x[1,3]  
 BV BND1      x[1,4]  
 BV BND1      x[2,1]  
 BV BND1      x[2,2]  
 BV BND1      x[2,3]  
 BV BND1      x[2,4]  
 BV BND1      x[3,1]  
 BV BND1      x[3,2]  
 BV BND1      x[3,3]  
 BV BND1      x[3,4]  
 BV BND1      x[4,1]  
 BV BND1      x[4,2]  
 BV BND1      x[4,3]  
 BV BND1      x[4,4]  
 BV BND1      x[5,1]  
 BV BND1      x[5,2]  
 BV BND1      x[5,3]  
 BV BND1      x[5,4]  
 BV BND1      x[6,1]  
 BV BND1      x[6,2]  
 BV BND1      x[6,3]  
 BV BND1      x[6,4]  
ENDATA
